%%%mzn-stat: initTime=0.044917963
%%%mzn-stat: objective=179
%%%mzn-stat: nodes=3342
%%%mzn-stat: restarts=0
%%%mzn-stat: peakDepth=1271
%%%mzn-stat: solveTime=2.007425961
%%%mzn-stat: variables=4274
%%%mzn-stat: propagators=3785
%%%mzn-stat: failures=1342
%%%mzn-stat: propagations=532208
%%%mzn-stat: nogoods=1342
%%%mzn-stat: AverageConflictSize=19.358420268256335
%%%mzn-stat: NumUnitNogoodsLearned=178
%%%mzn-stat: AverageLearnedNogoodLength=115.17362146050671
%%%mzn-stat: AverageBacktrackAmount=0
%%%mzn-stat: AverageLbd=34.47540983606557
%%%mzn-stat-end
maxleg = 179;
succ = array1d(1..150,[149, 15, 139, 44, 138, 32, 131, 21, 29, 112, 72, 84, 56, 148, 150, 62, 135, 5, 86, 117, 43, 113, 45, 65, 80, 106, 85, 61, 14, 133, 120, 37, 34, 19, 114, 76, 51, 96, 28, 82, 110, 123, 25, 67, 20, 91, 107, 17, 55, 79, 126, 8, 124, 39, 70, 93, 9, 119, 115, 81, 53, 111, 3, 95, 52, 27, 125, 10, 57, 102, 22, 104, 116, 147, 94, 49, 13, 129, 6, 90, 118, 2, 42, 36, 59, 92, 101, 24, 83, 69, 54, 18, 141, 4, 134, 88, 38, 143, 47, 58, 66, 73, 105, 100, 23, 145, 78, 50, 7, 121, 140, 142, 41, 71, 109, 136, 122, 11, 48, 75, 68, 87, 60, 144, 127, 89, 99, 12, 97, 108, 46, 64, 33, 98, 16, 40, 130, 31, 1, 77, 74, 146, 103, 30, 35, 132, 128, 137, 26, 63]);
% time elapsed: 5.55 s
----------
==========
% time elapsed: 5.55 s
%%%mzn-stat: initTime=0.044917963
%%%mzn-stat: objective=179
%%%mzn-stat: nodes=3342
%%%mzn-stat: restarts=0
%%%mzn-stat: peakDepth=1271
%%%mzn-stat: solveTime=2.007443349
%%%mzn-stat: variables=4274
%%%mzn-stat: propagators=3785
%%%mzn-stat: failures=1342
%%%mzn-stat: propagations=532208
%%%mzn-stat: nogoods=1342
%%%mzn-stat: AverageConflictSize=19.358420268256335
%%%mzn-stat: NumUnitNogoodsLearned=178
%%%mzn-stat: AverageLearnedNogoodLength=115.17362146050671
%%%mzn-stat: AverageBacktrackAmount=0
%%%mzn-stat: AverageLbd=34.47540983606557
%%%mzn-stat-end
